

******************************************************************************
This program contains Ipopt, a library for large-scale nonlinear optimization.
 Ipopt is released as open source code under the Eclipse Public License (EPL).
         For more information visit http://projects.coin-or.org/Ipopt
******************************************************************************

This is Ipopt version 3.12.8, running with linear solver mumps.
NOTE: Other linear solvers might be more efficient (see Ipopt documentation).

Number of nonzeros in equality constraint Jacobian...:        0
Number of nonzeros in inequality constraint Jacobian.:        0
Number of nonzeros in Lagrangian Hessian.............:     4095

Total number of variables............................:       90
                     variables with only lower bounds:        0
                variables with lower and upper bounds:       90
                     variables with only upper bounds:        0
Total number of equality constraints.................:        0
Total number of inequality constraints...............:        0
        inequality constraints with only lower bounds:        0
   inequality constraints with lower and upper bounds:        0
        inequality constraints with only upper bounds:        0

iter    objective    inf_pr   inf_du lg(mu)  ||d||  lg(rg) alpha_du alpha_pr  ls
   0  3.1263741e+03 0.00e+00 1.00e+02  -1.0 0.00e+00    -  0.00e+00 0.00e+00   0
   1  1.5152187e+03 0.00e+00 3.98e+01  -1.0 2.16e-01   2.0 4.58e-01 1.00e+00f  1
   2  1.0377245e+03 0.00e+00 1.45e+01  -1.0 1.79e-01   1.5 1.00e+00 1.00e+00f  1
   3  9.6024942e+02 0.00e+00 7.99e+00  -1.0 7.70e-02   1.9 1.00e+00 1.00e+00f  1
   4  9.2610345e+02 0.00e+00 4.09e+00  -1.0 1.00e-01   1.5 1.00e+00 1.00e+00f  1
   5  9.2090778e+02 0.00e+00 3.37e+00  -1.0 4.11e-02   1.9 1.00e+00 1.00e+00f  1
   6  9.1966284e+02 0.00e+00 3.21e+00  -1.0 1.52e-02   2.3 1.00e+00 1.00e+00f  1
   7  9.1740814e+02 0.00e+00 3.17e+00  -1.0 4.42e-02   1.8 1.00e+00 1.00e+00f  1
   8  9.1668376e+02 0.00e+00 3.22e+00  -1.0 1.71e-02   2.3 1.00e+00 1.00e+00f  1
   9  9.1438161e+02 0.00e+00 3.66e+00  -1.0 5.79e-02   1.8 1.00e+00 1.00e+00f  1
iter    objective    inf_pr   inf_du lg(mu)  ||d||  lg(rg) alpha_du alpha_pr  ls
  10  9.1338419e+02 0.00e+00 3.87e+00  -1.0 2.32e-02   2.2 1.00e+00 1.00e+00f  1
  11  9.0911860e+02 0.00e+00 4.77e+00  -1.0 8.58e-02   1.7 1.00e+00 1.00e+00f  1
  12  9.0712401e+02 0.00e+00 5.14e+00  -1.0 3.48e-02   2.2 1.00e+00 1.00e+00f  1
  13  8.9814299e+02 0.00e+00 6.47e+00  -1.0 1.33e-01   1.7 1.00e+00 1.00e+00f  1
  14  8.9404970e+02 0.00e+00 6.92e+00  -1.0 5.28e-02   2.1 1.00e+00 1.00e+00f  1
  15  8.7693192e+02 0.00e+00 8.11e+00  -1.0 1.94e-01   1.6 1.00e+00 1.00e+00f  1
  16  8.6998673e+02 0.00e+00 8.33e+00  -1.0 7.19e-02   2.1 1.00e+00 1.00e+00f  1
  17  8.4685318e+02 0.00e+00 7.99e+00  -1.0 2.30e-01   1.6 1.00e+00 1.00e+00f  1
  18  8.3931285e+02 0.00e+00 7.53e+00  -1.0 7.36e-02   2.0 1.00e+00 1.00e+00f  1
  19  8.2131535e+02 0.00e+00 5.52e+00  -1.0 1.85e-01   1.5 1.00e+00 1.00e+00f  1
iter    objective    inf_pr   inf_du lg(mu)  ||d||  lg(rg) alpha_du alpha_pr  ls
  20  8.1712129e+02 0.00e+00 3.93e+00  -1.0 4.31e-02   2.0 1.00e+00 1.00e+00f  1
  21  8.1404903e+02 0.00e+00 6.56e-01  -1.0 2.25e-02   1.5 1.00e+00 1.00e+00f  1
  22  8.1388917e+02 0.00e+00 4.03e-01  -1.7 4.87e-03   1.9 1.00e+00 1.00e+00f  1
  23  8.1381565e+02 0.00e+00 3.56e-01  -1.7 1.63e-03   2.3 1.00e+00 1.00e+00f  1
  24  8.1370173e+02 0.00e+00 2.55e-01  -1.7 3.47e-03   1.9 1.00e+00 1.00e+00f  1
  25  8.1367289e+02 0.00e+00 2.22e-01  -1.7 1.14e-03   2.3 1.00e+00 1.00e+00f  1
  26  8.1362454e+02 0.00e+00 1.55e-01  -1.7 2.38e-03   1.8 1.00e+00 1.00e+00f  1
  27  8.1342832e+02 0.00e+00 3.79e-01  -2.5 2.19e-03   2.2 1.00e+00 1.00e+00f  1
  28  8.1339550e+02 0.00e+00 9.40e-02  -2.5 1.63e-03   1.8 1.00e+00 1.00e+00f  1
  29  8.1339163e+02 0.00e+00 7.98e-02  -2.5 5.18e-04   2.2 1.00e+00 1.00e+00f  1
iter    objective    inf_pr   inf_du lg(mu)  ||d||  lg(rg) alpha_du alpha_pr  ls
  30  8.1338464e+02 0.00e+00 5.24e-02  -2.5 1.02e-03   1.7 1.00e+00 1.00e+00f  1
  31  8.1338305e+02 0.00e+00 4.39e-02  -2.5 3.21e-04   2.1 1.00e+00 1.00e+00f  1
  32  8.1338081e+02 0.00e+00 2.88e-02  -2.5 6.32e-04   1.7 1.00e+00 1.00e+00f  1
  33  8.1338033e+02 0.00e+00 2.44e-02  -2.5 2.01e-04   2.1 1.00e+00 1.00e+00f  1
  34  8.1334889e+02 0.00e+00 2.33e-02  -3.8 5.74e-04   1.6 1.00e+00 1.00e+00f  1
  35  8.1334871e+02 0.00e+00 2.43e-02  -3.8 2.25e-04   2.0 1.00e+00 1.00e+00f  1
  36  8.1334585e+02 0.00e+00 1.10e-01  -3.8 3.06e-03   1.6 1.00e+00 1.00e+00f  1
  37  8.1334254e+02 0.00e+00 1.68e-01  -3.8 1.75e-03   2.0 1.00e+00 1.00e+00f  1
  38  8.0500201e+02 0.00e+00 6.08e+00  -3.8 1.97e-01   1.5 1.00e+00 1.00e+00f  1
  39  7.9320434e+02 0.00e+00 9.07e+00  -3.8 1.08e-01   1.9 1.00e+00 1.00e+00f  1
iter    objective    inf_pr   inf_du lg(mu)  ||d||  lg(rg) alpha_du alpha_pr  ls
  40  7.8667162e+02 0.00e+00 1.02e+01  -3.8 4.51e-02   2.4 1.00e+00 1.00e+00f  1
  41  7.4386915e+02 0.00e+00 1.59e+01  -3.8 2.15e-01   1.9 1.00e+00 1.00e+00f  1
  42  7.2106725e+02 0.00e+00 1.80e+01  -3.8 8.96e-02   2.3 1.00e+00 1.00e+00f  1
  43  6.8501918e+02 0.00e+00 2.05e+01  -3.8 3.98e-01   1.8 1.00e+00 3.15e-01f  1
  44  6.8497092e+02 0.00e+00 2.05e+01  -3.8 1.27e-01   2.3 1.00e+00 1.30e-03f  1
  45  6.5898530e+02 0.00e+00 2.19e+01  -3.8 4.87e-01   1.8 1.00e+00 1.70e-01f  1
  46  6.1058154e+02 0.00e+00 2.34e+01  -3.8 1.50e-01   2.2 1.00e+00 1.00e+00f  1
  47  5.1400365e+02 0.00e+00 2.36e+01  -3.8 5.08e-01   1.7 1.00e+00 4.43e-01f  1
  48  5.1379381e+02 0.00e+00 2.36e+01  -3.8 1.59e-01   2.2 1.00e+00 2.97e-03f  1
  49  4.8150433e+02 0.00e+00 2.31e+01  -3.8 4.83e-01   1.7 1.00e+00 1.33e-01f  1
iter    objective    inf_pr   inf_du lg(mu)  ||d||  lg(rg) alpha_du alpha_pr  ls
  50  4.8052057e+02 0.00e+00 2.07e+01  -3.8 1.61e-01   2.1 1.00e+00 1.29e-02f  1
  51  4.6434740e+02 0.00e+00 2.06e+01  -3.8 5.97e-01   1.6 1.00e+00 6.29e-02f  1
  52  4.5121951e+02 0.00e+00 2.05e+01  -3.8 1.77e-01   2.1 1.00e+00 1.59e-01f  1
  53  4.2128613e+02 0.00e+00 2.00e+01  -3.8 7.51e-01   1.6 1.00e+00 1.11e-01f  1
  54  4.1737678e+02 0.00e+00 2.00e+01  -3.8 1.85e-01   2.0 1.00e+00 4.62e-02f  1
  55  3.8957588e+02 0.00e+00 1.93e+01  -3.8 9.18e-01   1.5 1.00e+00 9.76e-02f  1
  56  3.5208027e+02 0.00e+00 1.80e+01  -3.8 2.12e-01   1.9 1.00e+00 4.13e-01f  1
  57  3.4274470e+02 0.00e+00 1.78e+01  -3.8 1.10e+00   1.5 8.07e-01 3.49e-02f  1
  58  3.3138018e+02 0.00e+00 1.79e+01  -3.8 2.36e-01   1.9 1.00e+00 1.30e-01f  1
  59  2.8765953e+02 0.00e+00 2.02e+01  -3.8 3.23e+00   1.4 3.05e-01 1.14e-01f  1
iter    objective    inf_pr   inf_du lg(mu)  ||d||  lg(rg) alpha_du alpha_pr  ls
  60  2.5486975e+02 0.00e+00 1.94e+01  -3.8 2.73e-01   1.8 1.00e+00 3.58e-01f  1
  61  2.2685906e+02 0.00e+00 1.89e+01  -3.8 1.17e+00   1.4 2.74e-01 1.01e-01f  1
  62  2.2224053e+02 0.00e+00 1.85e+01  -3.8 2.81e-01   1.8 1.00e+00 5.33e-02f  1
  63  2.1650815e+02 0.00e+00 1.83e+01  -3.8 9.31e-01   1.3 5.19e-02 2.28e-02f  1
  64  1.9912391e+02 0.00e+00 1.79e+01  -3.8 3.01e-01   1.7 1.78e-01 2.00e-01f  1
  65  1.8586402e+02 0.00e+00 1.74e+01  -3.8 1.06e+00   1.3 2.22e-02 5.67e-02f  1
  66  1.8360379e+02 0.00e+00 1.73e+01  -3.8 2.89e-01   1.7 1.00e+00 2.96e-02f  1
  67  1.6645686e+02 0.00e+00 1.63e+01  -3.8 1.18e+00   1.2 5.34e-02 7.55e-02f  1
  68  1.6043050e+02 0.00e+00 1.58e+01  -3.8 2.84e-01   1.6 6.26e-01 8.38e-02f  1
  69  1.5333011e+02 0.00e+00 1.51e+01  -3.8 1.22e+00   1.2 2.18e-01 3.67e-02f  1
iter    objective    inf_pr   inf_du lg(mu)  ||d||  lg(rg) alpha_du alpha_pr  ls
  70  1.4966578e+02 0.00e+00 1.37e+01  -3.8 2.86e-01   1.6 1.00e+00 5.42e-02f  1
  71  1.3938033e+02 0.00e+00 1.32e+01  -3.8 1.75e+00   1.1 2.64e-01 5.04e-02f  1
  72  1.3586462e+02 0.00e+00 1.29e+01  -3.8 2.78e-01   1.5 6.39e-01 5.72e-02f  1
  73  1.2631221e+02 0.00e+00 1.20e+01  -3.8 1.20e-01   2.0 1.00e+00 3.88e-01f  1
  74  1.2375907e+02 0.00e+00 1.02e+01  -3.8 2.74e-01   1.5 6.17e-01 4.87e-02f  1
  75  1.1358082e+02 0.00e+00 9.31e+00  -3.8 1.07e-01   1.9 1.00e+00 4.82e-01f  1
  76  1.1232236e+02 0.00e+00 9.22e+00  -3.8 2.85e-01   1.4 6.45e-01 2.89e-02f  1
  77  1.0727585e+02 0.00e+00 8.78e+00  -3.8 1.14e-01   1.9 1.00e+00 2.77e-01f  1
  78  1.0295206e+02 0.00e+00 8.61e+00  -3.8 3.03e-01   1.4 4.52e-01 1.07e-01f  1
  79  9.7156591e+01 0.00e+00 8.21e+00  -3.8 1.18e-01   1.8 1.00e+00 3.63e-01f  1
iter    objective    inf_pr   inf_du lg(mu)  ||d||  lg(rg) alpha_du alpha_pr  ls
  80  9.5119274e+01 0.00e+00 8.06e+00  -3.8 2.73e-01   1.3 3.31e-01 6.15e-02f  1
  81  9.2694620e+01 0.00e+00 7.81e+00  -3.8 1.17e-01   1.8 1.00e+00 1.81e-01f  1
  82  9.1747539e+01 0.00e+00 7.74e+00  -3.8 2.99e-01   1.3 5.20e-01 3.61e-02f  1
  83  8.8237901e+01 0.00e+00 7.33e+00  -3.8 1.27e-01   1.7 1.00e+00 3.12e-01f  1
  84  8.5201733e+01 0.00e+00 7.01e+00  -3.8 3.08e-01   1.2 1.43e-01 1.30e-01f  1
  85  8.3920615e+01 0.00e+00 6.83e+00  -3.8 1.25e-01   1.7 1.00e+00 1.36e-01f  1
  86  8.2274197e+01 0.00e+00 6.63e+00  -3.8 3.42e-01   1.2 2.22e-01 7.76e-02f  1
  87  8.1573223e+01 0.00e+00 6.51e+00  -3.8 1.29e-01   1.6 1.00e+00 8.01e-02f  1
  88  7.9978138e+01 0.00e+00 6.27e+00  -3.8 3.82e-01   1.1 5.75e-01 8.62e-02f  1
  89  7.4540436e+01 0.00e+00 4.79e+00  -3.8 1.32e-01   1.6 1.00e+00 7.89e-01f  1
iter    objective    inf_pr   inf_du lg(mu)  ||d||  lg(rg) alpha_du alpha_pr  ls
  90  6.2565208e+01 0.00e+00 4.47e+00  -3.8 4.66e-01   1.1 3.66e-01 8.80e-01f  1
  91  6.2555314e+01 0.00e+00 4.47e+00  -3.8 1.29e-01   1.5 1.47e-01 2.78e-03f  1
  92  5.9790592e+01 0.00e+00 4.39e+00  -3.8 6.30e-01   1.0 4.35e-02 1.98e-01f  1
  93  5.8383702e+01 0.00e+00 4.20e+00  -3.8 1.50e-01   1.5 2.36e-01 3.19e-01f  1
  94  5.7263304e+01 0.00e+00 4.20e+00  -3.8 8.56e-01   1.0 2.05e-01 5.64e-02f  1
  95  5.3506617e+01 0.00e+00 4.16e+00  -3.8 1.82e-01   1.4 2.06e-01 7.06e-01f  1
  96  5.2740919e+01 0.00e+00 4.24e+00  -3.8 7.76e-01   0.9 5.11e-02 3.56e-02f  1
  97  5.1276427e+01 0.00e+00 4.30e+00  -3.8 2.06e-01   1.4 3.54e-01 2.31e-01f  1
  98  5.0695515e+01 0.00e+00 4.34e+00  -3.8 8.94e-01   0.9 4.45e-02 2.36e-02f  1
  99  4.9430844e+01 0.00e+00 4.33e+00  -3.8 2.21e-01   1.3 1.95e-01 1.84e-01f  1
iter    objective    inf_pr   inf_du lg(mu)  ||d||  lg(rg) alpha_du alpha_pr  ls
 100  4.8298768e+01 0.00e+00 4.36e+00  -3.8 9.89e-01   0.8 4.72e-02 4.57e-02f  1
 101  4.6136636e+01 0.00e+00 4.21e+00  -3.8 2.55e-01   1.2 3.26e-01 2.78e-01f  1
 102  4.4205832e+01 0.00e+00 4.20e+00  -3.8 1.20e+00   0.8 3.66e-02 7.53e-02f  1
 103  4.3611864e+01 0.00e+00 4.24e+00  -3.8 2.96e-01   1.2 3.78e-01 7.45e-02f  1
 104  4.2158840e+01 0.00e+00 4.40e+00  -3.8 1.43e+00   0.7 8.64e-02 5.59e-02f  1
 105  4.1356987e+01 0.00e+00 4.43e+00  -3.8 3.40e-01   1.1 1.92e-01 1.01e-01f  1
 106  3.9526900e+01 0.00e+00 4.57e+00  -3.8 1.58e+00   0.7 4.35e-02 7.10e-02f  1
 107  3.7230261e+01 0.00e+00 4.46e+00  -3.8 3.62e-01   1.1 1.00e+00 2.82e-01f  1
 108  3.6229824e+01 0.00e+00 4.45e+00  -3.8 1.17e+00   0.6 1.47e-01 5.08e-02f  1
 109  3.5386331e+01 0.00e+00 4.36e+00  -3.8 3.39e-01   1.0 1.00e+00 1.16e-01f  1
iter    objective    inf_pr   inf_du lg(mu)  ||d||  lg(rg) alpha_du alpha_pr  ls
 110  3.4489755e+01 0.00e+00 4.27e+00  -3.8 9.31e-01   0.6 3.19e-01 6.12e-02f  1
 111  3.3544006e+01 0.00e+00 4.03e+00  -3.8 3.09e-01   1.0 1.00e+00 1.63e-01f  1
 112  3.3005935e+01 0.00e+00 3.95e+00  -3.8 9.57e-01   0.5 2.54e-01 4.81e-02f  1
 113  3.2480510e+01 0.00e+00 3.72e+00  -3.8 2.62e-01   0.9 1.00e+00 1.25e-01f  1
 114  2.9319295e+01 0.00e+00 3.00e+00  -3.8 2.38e+00   0.5 1.30e-01 1.53e-01f  1
 115  2.9244648e+01 0.00e+00 2.98e+00  -3.8 3.39e+00  -0.0 8.74e-02 1.98e-03f  1
 116  2.8014439e+01 0.00e+00 2.84e+00  -3.8 6.63e-01   0.4 6.11e-01 1.41e-01f  1
 117  2.7655303e+01 0.00e+00 2.72e+00  -3.8 1.69e+00    -  7.88e-03 2.20e-02f  1
 118  2.7549455e+01 0.00e+00 2.82e+00  -3.8 1.02e+00    -  6.75e-02 1.16e-02f  1
 119  2.7382396e+01 0.00e+00 2.89e+00  -3.8 6.85e-01    -  1.53e-01 2.49e-02f  1
iter    objective    inf_pr   inf_du lg(mu)  ||d||  lg(rg) alpha_du alpha_pr  ls
 120  2.6970054e+01 0.00e+00 3.14e+00  -3.8 5.07e-01    -  8.43e-01 7.78e-02f  1
 121  2.6407688e+01 0.00e+00 2.45e+00  -3.8 4.13e-01    -  1.00e+00 1.58e-01f  1
 122  2.6143485e+01 0.00e+00 1.48e+00  -3.8 2.68e-01    -  1.00e+00 1.28e-01f  1
 123  2.5557988e+01 0.00e+00 7.74e-01  -3.8 2.25e-01    -  1.00e+00 4.96e-01f  1
 124  2.5332375e+01 0.00e+00 9.04e-02  -3.8 1.22e-01    -  1.00e+00 1.00e+00f  1
 125  2.5331977e+01 0.00e+00 5.71e-06  -3.8 9.89e-04    -  1.00e+00 1.00e+00f  1
 126  2.5316638e+01 0.00e+00 8.51e-07  -5.7 1.11e-04    -  1.00e+00 1.00e+00f  1
 127  2.5316413e+01 0.00e+00 2.18e-10  -8.6 1.76e-06    -  1.00e+00 1.00e+00f  1

Number of Iterations....: 127

                                   (scaled)                 (unscaled)
Objective...............:   1.9809399992803389e+01    2.5316413190802752e+01
Dual infeasibility......:   2.1788948423306920e-10    2.7846276084986266e-10
Constraint violation....:   0.0000000000000000e+00    0.0000000000000000e+00
Complementarity.........:   2.6428209598081296e-09    3.3775251866347926e-09
Overall NLP error.......:   2.6428209598081296e-09    3.3775251866347926e-09


Number of objective function evaluations             = 128
Number of objective gradient evaluations             = 128
Number of equality constraint evaluations            = 0
Number of inequality constraint evaluations          = 0
Number of equality constraint Jacobian evaluations   = 0
Number of inequality constraint Jacobian evaluations = 0
Number of Lagrangian Hessian evaluations             = 127
Total CPU secs in IPOPT (w/o function evaluations)   =      0.133
Total CPU secs in NLP function evaluations           =      0.044

EXIT: Optimal Solution Found.
 
Ipopt 3.12.8: Optimal Solution Found
